Version identifier: 22.1.1.0 | 2022-11-28 | 9160aff4d
CPXPARAM_ClockType                               1
CPXPARAM_Read_DataCheck                          1
CPXPARAM_Threads                                 1
CPXPARAM_TimeLimit                               7200
CPXPARAM_MIP_Tolerances_AbsMIPGap                0
CPXPARAM_MIP_Tolerances_MIPGap                   0
CPXPARAM_MIP_Tolerances_Integrality              0
Found incumbent of value 0.000000 after 0.00 sec. (0.62 ticks)
Tried aggregator 1 time.
MIP Presolve eliminated 797 rows and 4 columns.
MIP Presolve modified 408 coefficients.
Reduced MIP has 4024 rows, 2246 columns, and 13466 nonzeros.
Reduced MIP has 2246 binaries, 0 generals, 0 SOSs, and 0 indicators.
Presolve time = 0.01 sec. (9.35 ticks)
Probing time = 0.01 sec. (2.84 ticks)
Tried aggregator 1 time.
Detecting symmetries...
MIP Presolve eliminated 250 rows and 0 columns.
Reduced MIP has 3774 rows, 2246 columns, and 12716 nonzeros.
Reduced MIP has 2246 binaries, 0 generals, 0 SOSs, and 0 indicators.
Presolve time = 0.02 sec. (10.83 ticks)
Probing time = 0.01 sec. (2.60 ticks)
Clique table members: 8046.
MIP emphasis: balance optimality and feasibility.
MIP search method: dynamic search.
Parallel mode: none, using 1 thread.
Root relaxation solution time = 0.26 sec. (238.33 ticks)

        Nodes                                         Cuts/
   Node  Left     Objective  IInf  Best Integer    Best Bound    ItCnt     Gap

*     0+    0                            0.0000     3000.0000              --- 
      0     0      800.0000   782        0.0000      800.0000     1653     --- 
      0     0      800.0000   734        0.0000      Cuts: 26     1744     --- 
      0     0      800.0000   786        0.0000      Cuts: 75     3218     --- 
      0     0      800.0000   755        0.0000      Cuts: 16     3346     --- 
      0     0      800.0000   770        0.0000      Cuts: 47     5378     --- 
*     0+    0                          760.0000      800.0000             5.26%
Detecting symmetries...
      0     2      800.0000   703      760.0000      800.0000     5378    5.26%
Elapsed time = 3.52 sec. (2279.54 ticks, tree = 0.01 MB, solutions = 2)
      1     3      800.0000   626      760.0000      800.0000     7766    5.26%
      3     5      800.0000   649      760.0000      800.0000     9487    5.26%
      9    11      800.0000   552      760.0000      800.0000    11046    5.26%
     15    17      800.0000   513      760.0000      800.0000    12523    5.26%
     19    21      800.0000   496      760.0000      800.0000    14300    5.26%
     25    27      800.0000   586      760.0000      800.0000    15946    5.26%
     29    31      800.0000   711      760.0000      800.0000    16972    5.26%
     40    42      800.0000   422      760.0000      800.0000    17975    5.26%
     43    45      800.0000   521      760.0000      800.0000    20088    5.26%
     59    61      800.0000   498      760.0000      800.0000    26890    5.26%
Elapsed time = 8.15 sec. (6044.85 ticks, tree = 1.19 MB, solutions = 2)
     75    73      800.0000   525      760.0000      800.0000    31727    5.26%
     96    90      800.0000   555      760.0000      800.0000    37625    5.26%
    112   102      800.0000   612      760.0000      800.0000    41867    5.26%
    143   129      800.0000   520      760.0000      800.0000    47798    5.26%
    176   162      800.0000   605      760.0000      800.0000    52981    5.26%
    191   173      800.0000   642      760.0000      800.0000    56082    5.26%
    218   194      800.0000   637      760.0000      800.0000    61184    5.26%
    242   204      800.0000   673      760.0000      800.0000    64833    5.26%
    273   235      800.0000   617      760.0000      800.0000    70262    5.26%
    286   246    infeasible            760.0000      800.0000    76343    5.26%
Elapsed time = 18.84 sec. (15890.55 ticks, tree = 6.89 MB, solutions = 2)
    315   273      800.0000   636      760.0000      800.0000    82024    5.26%
    334   288      800.0000   659      760.0000      800.0000    87300    5.26%
    350   298      800.0000   407      760.0000      800.0000    93030    5.26%
    366   310      800.0000   632      760.0000      800.0000    97363    5.26%
    389   329      800.0000   697      760.0000      800.0000   103242    5.26%
    409   349      800.0000   631      760.0000      800.0000   108731    5.26%
    424   364      800.0000   553      760.0000      800.0000   113514    5.26%
    436   366      800.0000   470      760.0000      800.0000   119346    5.26%
    449   365      800.0000   651      760.0000      800.0000   123818    5.26%
    462   374      800.0000   624      760.0000      800.0000   129594    5.26%
Elapsed time = 29.41 sec. (25848.95 ticks, tree = 10.50 MB, solutions = 2)
    486   398      800.0000   625      760.0000      800.0000   134664    5.26%
    499   405      800.0000   629      760.0000      800.0000   140937    5.26%
    509   403    infeasible            760.0000      800.0000   147317    5.26%
    521   415      798.7000   570      760.0000      800.0000   153614    5.26%
    534   426      796.5000   554      760.0000      800.0000   160171    5.26%
    546   432      800.0000   653      760.0000      800.0000   166163    5.26%
    571   455      799.7500   509      760.0000      800.0000   171299    5.26%
    594   474      799.8571   576      760.0000      800.0000   177797    5.26%
    620   496      800.0000   629      760.0000      800.0000   183485    5.26%
    641   513      800.0000   628      760.0000      800.0000   189525    5.26%
Elapsed time = 40.72 sec. (36276.60 ticks, tree = 14.76 MB, solutions = 2)
    670   542      800.0000   598      760.0000      800.0000   194869    5.26%
    685   551      800.0000   570      760.0000      800.0000   199698    5.26%
    711   577      798.9000   530      760.0000      800.0000   205579    5.26%
    731   587      800.0000   653      760.0000      800.0000   212493    5.26%
    748   604      795.8571   655      760.0000      800.0000   217562    5.26%
    767   613      800.0000   576      760.0000      800.0000   224860    5.26%
    789   631      800.0000   424      760.0000      800.0000   229818    5.26%
    808   642      800.0000   569      760.0000      800.0000   235878    5.26%
    819   645    infeasible            760.0000      800.0000   242250    5.26%
    829   655      796.0000   577      760.0000      800.0000   247855    5.26%
Elapsed time = 51.36 sec. (46395.09 ticks, tree = 19.11 MB, solutions = 2)
    842   662      800.0000   601      760.0000      800.0000   253192    5.26%
    865   679    infeasible            760.0000      800.0000   258321    5.26%
    881   685      800.0000   670      760.0000      800.0000   263285    5.26%
    891   691      800.0000   630      760.0000      800.0000   268576    5.26%
    905   701      800.0000   693      760.0000      800.0000   274575    5.26%
    921   717      800.0000   286      760.0000      800.0000   279755    5.26%
    931   717        cutoff            760.0000      800.0000   285957    5.26%
    949   721      800.0000   304      760.0000      800.0000   291496    5.26%
    960   730      800.0000   663      760.0000      800.0000   296514    5.26%
    973   737      800.0000   631      760.0000      800.0000   304008    5.26%
Elapsed time = 62.19 sec. (56475.24 ticks, tree = 21.63 MB, solutions = 2)
    993   753      800.0000   571      760.0000      800.0000   308899    5.26%
   1008   762      800.0000   620      760.0000      800.0000   314504    5.26%
*  1021+  773                          766.0000      800.0000             4.44%
*  1022+  774                          770.0000      800.0000             3.90%
*  1022+  774                          772.0000      800.0000             3.63%
   1022   776      800.0000   394      772.0000      800.0000   319491    3.63%
   1041   795      799.8333   515      772.0000      800.0000   325139    3.63%
   1061   807      798.9167   601      772.0000      800.0000   332564    3.63%
   1077   817        cutoff            772.0000      800.0000   339489    3.63%
   1090   820      799.8333   555      772.0000      800.0000   346223    3.63%
   1103   825      800.0000   404      772.0000      800.0000   351960    3.63%
   1124   840      798.0000   423      772.0000      800.0000   356724    3.63%
   1143   847      799.0000   523      772.0000      800.0000   362618    3.63%
Elapsed time = 73.40 sec. (66535.75 ticks, tree = 25.01 MB, solutions = 5)
   1164   858        cutoff            772.0000      800.0000   369190    3.63%
   1174   860      799.4000   582      772.0000      800.0000   376336    3.63%
   1191   867      799.7500   531      772.0000      800.0000   381118    3.63%
   1212   878        cutoff            772.0000      800.0000   387383    3.63%
   1234   890    infeasible            772.0000      800.0000   393811    3.63%
   1255   901      799.9259   616      772.0000      800.0000   398708    3.63%
   1273   907      799.8889   573      772.0000      800.0000   405065    3.63%
   1292   920      796.8889   554      772.0000      800.0000   409964    3.63%
   1312   932    infeasible            772.0000      800.0000   416185    3.63%
   1328   940    infeasible            772.0000      800.0000   422895    3.63%
Elapsed time = 84.81 sec. (76673.57 ticks, tree = 27.88 MB, solutions = 5)
   1348   950      796.0000   581      772.0000      800.0000   429102    3.63%
   1364   956      796.0000   602      772.0000      800.0000   435321    3.63%
   1379   961        cutoff            772.0000      800.0000   441593    3.63%
   1394   962        cutoff            772.0000      800.0000   447801    3.63%
   1414   976      796.0000   565      772.0000      800.0000   453960    3.63%
   1435   989      796.2000   499      772.0000      800.0000   459454    3.63%
   1459  1001      799.4000   529      772.0000      800.0000   465607    3.63%
   1476  1008      799.0000   503      772.0000      800.0000   471627    3.63%
   1495  1017        cutoff            772.0000      800.0000   478527    3.63%
   1513  1029      794.8333   529      772.0000      800.0000   485337    3.63%
Elapsed time = 96.00 sec. (86598.63 ticks, tree = 30.60 MB, solutions = 5)
   1525  1033      799.8261   584      772.0000      800.0000   490484    3.63%
   1545  1045      799.5000   501      772.0000      800.0000   497995    3.63%
   1554  1047      799.6000   582      772.0000      800.0000   504204    3.63%
   1570  1057      786.0000   498      772.0000      800.0000   510472    3.63%
   1595  1070      799.0000   536      772.0000      800.0000   516456    3.63%
   1612  1079      795.2000   535      772.0000      800.0000   523270    3.63%
   1639  1096    infeasible            772.0000      800.0000   529523    3.63%

Performing restart 1

Repeating presolve.
Tried aggregator 1 time.
MIP Presolve eliminated 0 rows and 17 columns.
Reduced MIP has 3774 rows, 2229 columns, and 12682 nonzeros.
Reduced MIP has 2229 binaries, 0 generals, 0 SOSs, and 0 indicators.
Presolve time = 0.01 sec. (7.16 ticks)
Tried aggregator 1 time.
MIP Presolve eliminated 0 rows and 1 columns.
MIP Presolve modified 6 coefficients.
Reduced MIP has 3774 rows, 2228 columns, and 12680 nonzeros.
Reduced MIP has 2228 binaries, 0 generals, 0 SOSs, and 0 indicators.
Presolve time = 0.02 sec. (13.85 ticks)
Represolve time = 0.07 sec. (42.23 ticks)
   1641     0      800.0000   768      772.0000   ZeroHalf: 4   532050    3.63%
   1641     0      800.0000   752      772.0000      Cuts: 93   533460    3.63%
   1641     0      800.0000   766      772.0000     Cuts: 177   533972    3.63%
   1641     0      800.0000   758      772.0000      Cuts: 52   534588    3.63%
   1641     0      800.0000   772      772.0000     Cuts: 105   535300    3.63%
   1641     0      800.0000   743      772.0000   ZeroHalf: 4   535497    3.63%
   1641     0      800.0000   804      772.0000      Cuts: 79   537369    3.63%
   1641     0      800.0000   730      772.0000   ZeroHalf: 7   537557    3.63%
   1641     0      800.0000   752      772.0000     Cuts: 124   537795    3.63%
*  1641+    0                          782.0000      800.0000             2.30%
   1641     2      800.0000   753      782.0000      800.0000   537795    2.30%
   1642     3      800.0000   716      782.0000      800.0000   545142    2.30%
*  1656     1      integral     0      800.0000      800.0000   551012    0.00%

GUB cover cuts applied:  1
Clique cuts applied:  3
Implied bound cuts applied:  3
Zero-half cuts applied:  25

Root node processing (before b&c):
  Real time             =    3.51 sec. (2272.07 ticks)
Sequential b&c:
  Real time             =  114.92 sec. (101986.21 ticks)
                          ------------
Total (root+branch&cut) =  118.43 sec. (104258.28 ticks)
Solution is feasible.

---------------------
@@@ MIP_optimal
>>> Benchmark flat50-4.cnf k 5 OPT 800 TimeCost 119.2409279346466 TimeSolve 118.93733477592468 TimeRead 0.021418333053588867 TimeTrans 0.28217482566833496
